SimulationType                MonteCarlo
NumberOfCycles                100000
NumberOfInitializationCycles  100000
PrintEvery                    5000
RestartFile                   no

Forcefield                    JamesMOFsJuneForceField
UseChargesFromCIFFile         no

Framework 0
FrameworkName bibPh_vol_37.58
UnitCells 1 1 1
ExternalTemperature 298.0
ExternalPressure 1e3 2e3 4e3 7e3
ComputeDensityProfile3DVTKGrid yes
WriteDensityProfile3DVTKGridEvery 2000
DensityProfile3DVTKGridPoints 150 150 150

Component 0 MoleculeName             methane
            MoleculeDefinition       ExampleDefinitions
            TranslationProbability   0.5
            RotationProbability      0
            ReinsertionProbability   0
            SwapProbability          1.0
            CreateNumberOfMolecules  0
